77
1 65 
1 43 
2 112 100 
1 80 
1 4 
2 79 97 
2 34 90 
1 31 
2 118 70 
1 58 
2 46 109 
2 40 91 
2 52 64 
1 85 
2 49 13 
1 73 
2 106 67 
1 19 
2 61 7 
3 88 75 92 
2 113 17 
3 22 3 5 
2 82 94 
3 115 42 96 
1 16 
2 28 20 
3 2 116 84 
1 37 
1 101 
2 55 50 
1 18 
1 63 
1 51 
1 69 
1 117 
1 27 
1 30 
3 9 99 72 
1 15 
3 108 29 87 
1 105 
3 1 21 60 
2 104 8 
1 66 
2 24 103 
1 120 
2 76 39 
1 89 
1 54 
1 48 
3 95 111 107 
1 93 
1 25 
1 14 
1 53 
1 36 
3 110 47 41 
1 33 
3 81 32 6 
3 23 11 26 
1 102 
1 35 
2 98 12 
1 62 
1 114 
1 68 
3 45 83 71 
2 78 74 
1 119 
1 59 
1 57 
1 77 
1 86 
1 56 
1 44 
1 38 
1 10 
